(set-info :smt-lib-version 2.6)
(set-logic QF_S)
(set-info :source |
Generated by: Hongjian Jiang, Oliver Markgraf, Daniel Stan, Anthony W. Lin, Philipp Ruemmer
Generated on: 2025-04-11
Application: Using String Solvers to solve RMC problems encoded as CHC over Strings
Target solver: cvc5, OSTRICH, Z3, Z3alpha, Z3-noodler
Time limit: 60.0
Benchmarks are extracted by running HornStr https://arg-git.informatik.uni-kl.de/pub/string-chc-lib on all benchmarks
provided in the repository and gathering the string queries sent to the string solvers.
|)
(set-info :license "https://creativecommons.org/licenses/by/4.0/")
(set-info :category "industrial")
(declare-fun X () String)
(assert (str.in_re X (re.* (re.union (str.to_re "T") (str.to_re "N")))))
(declare-fun reg0 () String)
(declare-fun reg1 () String)
(declare-fun Y () String)
(assert (let ((a!1 (str.in_re reg0 (re.* (re.union (str.to_re "N") (str.to_re "T")))))
      (a!2 (str.in_re reg1 (re.* (re.union (str.to_re "N") (str.to_re "T"))))))
  (and true
       (= X (str.++ "" reg0 "T" "N" reg1))
       (= Y (str.++ "" reg0 "N" "T" reg1))
       a!1
       a!2)))
(push 1)
(assert (= Y ""))
(set-info :status unknown)
(check-sat)
(pop 1)
(push 1)
(assert (= Y "N"))
(set-info :status unknown)
(check-sat)
(pop 1)
(push 1)
(assert (= Y "NN"))
(set-info :status unknown)
(check-sat)
(pop 1)
(check-sat)
(exit)
